DIMENSION: 10
EDGE_WEIGHT_TYPE: EXPLICIT
EDGE_WEIGHT_FORMAT: FULL_MATRIX
EDGE_WEIGHT_SECTION:
32767 32767 94 7 32767 40 32767 32767 32767 32767 
32767 32767 84 98 32767 85 32767 75 32767 42 
94 84 32767 32767 32767 32767 32767 32767 91 32767 
7 98 32767 32767 32767 32767 32767 32767 32767 32767 
32767 32767 32767 32767 32767 32767 32767 18 32767 42 
40 85 32767 32767 32767 32767 30 32767 32767 27 
32767 32767 32767 32767 32767 30 32767 32767 17 32767 
32767 75 32767 32767 18 32767 32767 32767 32767 32767 
32767 32767 91 32767 32767 32767 17 32767 32767 32767 
32767 42 32767 32767 42 27 32767 32767 32767 32767 
EOF